20 380
0 1 35.1
0 2 26.2
0 3 16.5
0 4 83.2
0 5 58.3
0 6 30.5
0 7 73.1
0 8 67.9
0 9 83.3
0 10 81.0
0 11 46.9
0 12 20.0
0 13 23.4
0 14 28.2
0 15 18.6
0 16 48.0
0 17 5.9
0 18 73.6
0 19 62.6
1 2 21.6
1 3 39.7
1 4 57.5
1 5 34.3
1 6 44.5
1 7 39.4
1 8 32.8
1 9 49.0
1 10 58.2
1 11 13.1
1 12 54.1
1 13 33.0
1 14 33.0
1 15 35.6
1 16 45.2
1 17 35.3
1 18 50.4
1 19 47.2
2 3 39.2
2 4 57.0
2 5 32.2
2 6 49.9
2 7 59.6
2 8 49.8
2 9 61.7
2 10 54.7
2 11 34.2
2 12 40.0
2 13 38.9
2 14 11.5
2 15 16.5
2 16 59.2
2 17 30.0
2 18 47.4
2 19 66.2
3 4 94.2
3 5 69.3
3 6 14.3
3 7 72.5
3 8 70.9
3 9 88.4
3 10 93.0
3 11 48.5
3 12 29.9
3 13 11.8
3 14 43.7
3 15 35.0
3 16 34.6
3 17 10.7
3 18 85.3
3 19 52.3
4 5 25.0
4 6 101.5
4 7 61.6
4 8 46.4
4 9 36.1
4 10 7.9
4 11 57.4
4 12 95.6
4 13 89.9
4 14 59.8
4 15 70.6
4 16 101.5
4 17 86.4
4 18 10.6
4 19 97.2
5 6 77.2
5 7 51.5
5 8 36.4
5 9 38.0
5 10 24.1
5 11 37.7
5 12 71.5
5 13 65.6
5 14 36.4
5 15 46.7
5 16 79.4
5 17 61.4
5 18 16.3
5 19 78.4
6 7 70.6
6 8 72.1
6 9 90.7
6 10 101.3
6 11 50.0
6 12 43.5
6 13 11.6
6 14 56.2
6 15 48.5
6 16 22.5
6 17 24.6
6 18 93.5
6 19 42.3
7 8 15.7
7 9 30.1
7 10 66.9
7 11 26.5
7 12 92.8
7 13 62.0
7 14 70.6
7 15 74.9
7 16 57.5
7 17 71.8
7 18 61.1
7 19 43.5
8 9 19.3
8 10 51.4
8 11 22.4
8 12 86.7
8 13 61.9
8 14 60.0
8 15 66.0
8 16 63.6
8 17 67.9
8 18 45.4
8 19 53.8
9 10 43.1
9 11 40.7
9 12 100.9
9 13 80.2
9 14 70.1
9 15 78.2
9 16 82.9
9 17 84.2
9 18 39.6
9 19 72.3
10 11 59.8
10 12 92.0
10 13 89.7
10 14 56.0
10 15 67.1
10 16 103.0
10 17 84.6
10 18 7.8
10 19 100.3
11 12 66.4
11 13 39.6
11 14 45.6
11 15 48.7
11 16 44.5
11 17 46.2
11 18 52.3
11 19 40.7
12 13 40.5
12 14 36.0
12 15 25.0
12 16 64.4
12 17 23.1
12 18 85.3
12 19 81.1
13 14 46.2
13 15 39.7
13 16 24.6
13 17 18.1
13 18 81.9
13 19 40.8
14 15 11.2
14 16 68.4
14 17 33.3
14 18 49.4
14 19 77.0
15 16 63.4
15 17 24.3
15 18 60.3
15 19 74.8
16 17 42.7
16 18 95.3
16 19 20.7
17 18 77.1
17 19 58.2
18 19 92.9
